sat
(
  (define-fun J () String
    "a")
  (define-fun G () String
    "bbaa")
  (define-fun I () String
    "")
  (define-fun M () String
    "")
  (define-fun H () String
    "")
  (define-fun K () String
    "baa")
)
